0 57 133 122 347 362 495 452 543 578 404 250
 57 0 188 144 356 355 498 483 577 605 449 298
133 188 0 157 365 412 511 402 480 534 289 153
122 144 157 0 225 258 374 338 433 461 337 187
347 356 365 225 0 99 150 215 311 295 380 294
362 355 412 258 99 0 165 312 406 380 473 372
495 498 511 374 150 165 0 250 316 255 477 422
452 483 402 338 215 312 250 0 100 135 245 257
543 577 480 433 311 406 316 100 0 95 270 330
578 605 534 461 295 380 255 135 95 0 355 392
404 449 289 337 380 473 477 245 270 355 0 150
250 298 153 187 294 372 422 257 330 392 150 0
